optimisation/assignments/ampl-v2-3/q2/solution.output
Couenne 0.5.6 -- an Open-Source solver for Mixed Integer Nonlinear Optimization
Mailing list: couenne@list.coin-or.org
Instructions: http://www.coin-or.org/Couenne
couenne: 
Ampl model contains a constraint without "=", ">=", or "<=".
<BREAK>
